# Objective value = 5163.42
I_0_0 676
I_0_1 899
I_0_2 767
I_0_3 899
I_0_4 772
I_0_5 676
I_0_6 990
I_1_0 96
I_1_1 48
I_1_2 9.6000000000000028e+01
I_1_3 48
I_1_4 0
I_1_5 9.5999999999999943e+01
I_1_6 4.7999999999999936e+01
I_2_0 53
I_2_1 0
I_2_2 53
I_2_3 0
I_2_4 53
I_2_5 53
I_2_6 0
I_3_0 91
I_3_1 91
I_3_2 -3.0309088572266774e-14
I_3_3 91
I_3_4 91
I_3_5 91
I_3_6 0
I_4_0 67
I_4_1 0
I_4_2 67
I_4_3 0
I_4_4 67
I_4_5 67
I_4_6 0
I_5_0 55
I_5_1 0
I_5_2 55
I_5_3 0
I_5_4 55
I_5_5 55
I_5_6 0
q_1_0 0
q_1_1 9.6000000000000028e+01
q_1_2 -2.1316282072803006e-14
q_1_3 0
q_1_4 1.4399999999999994e+02
q_1_5 0
q_2_0 0
q_2_1 106
q_2_2 0
q_2_3 106
q_2_4 53
q_2_5 0
q_3_0 91
q_3_1 -3.0309088572266774e-14
q_3_2 1.8200000000000003e+02
q_3_3 91
q_3_4 91
q_3_5 0
q_4_0 0
q_4_1 134
q_4_2 0
q_4_3 134
q_4_4 67
q_4_5 0
q_5_0 0
q_5_1 110
q_5_2 0
q_5_3 110
q_5_4 55
q_5_5 0
y_0_0 1
y_0_1 1
y_0_2 1
y_0_3 1
y_0_4 1
y_0_5 0
y_1_0 0
y_1_1 1.0000000000000002e+00
y_1_2 -1.1102230246251565e-16
y_1_3 0
y_1_4 9.9999999999999956e-01
y_1_5 0
y_2_0 0
y_2_1 1
y_2_2 0
y_2_3 1
y_2_4 1
y_2_5 0
y_3_0 1
y_3_1 -3.3306690738754696e-16
y_3_2 1
y_3_3 1
y_3_4 1
y_3_5 0
y_4_0 0
y_4_1 1
y_4_2 0
y_4_3 1
y_4_4 1
y_4_5 0
y_5_0 0
y_5_1 1
y_5_2 0
y_5_3 1
y_5_4 1
y_5_5 0
x_0_1_0 0
x_0_1_1 1
x_0_1_2 -2.2204460492503131e-16
x_0_1_3 0
x_0_1_4 9.9999999999999911e-01
x_0_1_5 0
x_0_2_0 0
x_0_2_1 0
x_0_2_2 0
x_0_2_3 0
x_0_2_4 0
x_0_2_5 0
x_0_3_0 2
x_0_3_1 -2.2204460492503131e-16
x_0_3_2 2
x_0_3_3 9.9999999999999956e-01
x_0_3_4 1
x_0_3_5 0
x_0_4_0 0
x_0_4_1 1.0000000000000007e+00
x_0_4_2 0
x_0_4_3 0
x_0_4_4 0
x_0_4_5 0
x_0_5_0 0
x_0_5_1 0
x_0_5_2 0
x_0_5_3 1.0000000000000002e+00
x_0_5_4 0
x_0_5_5 0
x_1_2_0 0
x_1_2_1 0
x_1_2_2 0
x_1_2_3 0
x_1_2_4 0
x_1_2_5 0
x_1_3_0 0
x_1_3_1 0
x_1_3_2 0
x_1_3_3 0
x_1_3_4 0
x_1_3_5 0
x_1_4_0 0
x_1_4_1 0
x_1_4_2 0
x_1_4_3 0
x_1_4_4 0
x_1_4_5 0
x_1_5_0 0
x_1_5_1 1.0000000000000002e+00
x_1_5_2 0
x_1_5_3 0
x_1_5_4 1
x_1_5_5 0
x_2_3_0 0
x_2_3_1 0
x_2_3_2 0
x_2_3_3 0
x_2_3_4 0
x_2_3_5 0
x_2_4_0 0
x_2_4_1 9.9999999999999978e-01
x_2_4_2 0
x_2_4_3 1
x_2_4_4 1
x_2_4_5 0
x_2_5_0 0
x_2_5_1 1.0000000000000002e+00
x_2_5_2 0
x_2_5_3 1
x_2_5_4 1
x_2_5_5 0
x_3_4_0 0
x_3_4_1 -4.4408920985006262e-16
x_3_4_2 0
x_3_4_3 1.0000000000000004e+00
x_3_4_4 1
x_3_4_5 0
x_3_5_0 0
x_3_5_1 0
x_3_5_2 0
x_3_5_3 0
x_3_5_4 0
x_3_5_5 0
x_4_5_0 0
x_4_5_1 0
x_4_5_2 0
x_4_5_3 0
x_4_5_4 0
x_4_5_5 0
